p cnf 9 29
8 -7 -3 0
5 3 -2 0
9 -7 -1 0
5 8 6 0
3 4 5 0
7 -5 8 0
4 -5 1 0
3 -9 -1 0
-7 -5 -8 0
-8 -3 -6 0
9 4 3 0
9 6 8 0
5 3 8 0
9 3 2 0
-1 5 6 0
1 7 9 0
-5 -7 -1 0
-9 8 -6 0
-2 -5 -4 0
9 -7 -1 0
1 6 -3 0
1 9 2 0
-2 -8 5 0
4 -8 1 0
-4 -1 -8 0
-5 1 -9 0
-8 1 -9 0
-3 -2 -9 0
3 -7 -4 0
